
n_res = 6;
rcap = [34, 32, 27, 32, 791, 907];
rtype = [1, 1, 1, 1, 2, 2];
n_tasks = 50;
modes =  [{1, 2, 3}, {4, 5, 6}, {7, 8, 9}, {10, 11, 12}, {13, 14, 15}, {16, 17, 18}, {19, 20, 21}, {22, 23, 24}, {25, 26, 27}, {28, 29, 30}, {31, 32, 33}, {34, 35, 36}, {37, 38, 39}, {40, 41, 42}, {43, 44, 45}, {46, 47, 48}, {49, 50, 51}, {52, 53, 54}, {55, 56, 57}, {58, 59, 60}, {61, 62, 63}, {64, 65, 66}, {67, 68, 69}, {70, 71, 72}, {73, 74, 75}, {76, 77, 78}, {79, 80, 81}, {82, 83, 84}, {85, 86, 87}, {88, 89, 90}, {91, 92, 93}, {94, 95, 96}, {97, 98, 99}, {100, 101, 102}, {103, 104, 105}, {106, 107, 108}, {109, 110, 111}, {112, 113, 114}, {115, 116, 117}, {118, 119, 120}, {121, 122, 123}, {124, 125, 126}, {127, 128, 129}, {130, 131, 132}, {133, 134, 135}, {136, 137, 138}, {139, 140, 141}, {142, 143, 144}, {145, 146, 147}, {148, 149, 150}];
succ =  [{50, 29, 21, 20, 18, 13, 9}, {47, 34, 27, 24, 22, 17, 13}, {50, 48, 47, 46, 43, 31, 30, 27, 25, 13}, {49, 47, 40, 31, 28, 27, 26, 25, 17}, {50, 49, 48, 46, 42, 41, 37, 34, 33, 32, 28, 26}, {47, 46, 42, 40, 32, 31, 30, 29, 28, 27, 26}, {48, 47, 45, 43, 42, 41, 40, 33, 31, 27, 26}, {47, 41, 40, 38, 32, 27, 26, 20}, {46, 45, 41, 40, 39, 31, 28, 27}, {46, 45, 44, 43, 42, 41, 40, 38, 37, 26}, {49, 45, 43, 41, 39, 33, 31, 27}, {48, 47, 45, 43, 42, 40, 26, 25}, {49, 42, 41, 40, 37, 33, 32, 26}, {50, 49, 42, 40, 32, 31, 25}, {48, 46, 45, 44, 41, 40, 39, 36}, {41, 40, 37, 29, 28}, {50, 48, 42, 41, 38, 37, 36}, {45, 42, 41, 36, 27}, {48, 40, 38, 26}, {46, 45, 44, 42, 37}, {47, 46, 44, 39, 37}, {45, 43, 32, 31}, {41, 40, 28}, {46, 42, 38, 36}, {39, 38, 37}, {39, 36}, {44, 37}, {43, 38}, {43, 36}, {37, 36}, {36}, {36}, {38}, {40}, {36}, {}, {}, {}, {}, {}, {}, {}, {}, {}, {}, {}, {}, {}, {}, {}];
n_opt = 150;
dur = [5, 10, 27, 8, 15, 22, 8, 12, 18, 13, 14, 27, 9, 10, 29, 14, 26, 27, 2, 4, 25, 11, 19, 24, 15, 16, 23, 6, 15, 25, 13, 24, 25, 8, 21, 26, 1, 9, 25, 2, 6, 8, 5, 26, 29, 1, 2, 14, 5, 17, 18, 3, 14, 18, 13, 14, 21, 6, 16, 19, 1, 6, 25, 14, 19, 24, 13, 15, 16, 18, 19, 27, 1, 8, 28, 5, 23, 29, 8, 15, 18, 4, 7, 23, 18, 19, 20, 4, 14, 18, 12, 17, 23, 5, 7, 12, 3, 12, 15, 12, 18, 30, 1, 10, 16, 4, 19, 22, 6, 8, 28, 4, 14, 20, 1, 6, 13, 5, 9, 30, 1, 17, 22, 8, 18, 19, 6, 16, 30, 8, 12, 14, 1, 7, 21, 7, 14, 29, 3, 20, 22, 6, 17, 26, 5, 25, 27, 14, 19, 22];
rreq = [|5, 5, 5, 3, 2, 2, 4, 2, 2, 4, 3, 3, 3, 3, 3, 3, 3, 3, 4, 2, 1, 3, 1, 1, 3, 2, 1, 4, 3, 3, 3, 2, 2, 4, 4, 4, 4, 2, 2, 3, 3, 3, 3, 2, 2, 5, 4, 3, 4, 4, 4, 5, 4, 3, 4, 2, 2, 5, 4, 3, 3, 2, 2, 1, 1, 1, 4, 4, 4, 2, 1, 1, 3, 3, 1, 2, 2, 2, 3, 3, 3, 2, 2, 2, 5, 4, 4, 5, 4, 4, 5, 4, 4, 1, 1, 1, 5, 5, 5, 3, 3, 3, 4, 3, 2, 3, 2, 2, 5, 3, 1, 4, 3, 3, 4, 3, 3, 5, 4, 4, 3, 3, 3, 2, 1, 1, 1, 1, 1, 4, 4, 4, 4, 2, 2, 3, 2, 2, 1, 1, 1, 3, 3, 2, 3, 2, 2, 5, 4, 4
 |1, 1, 1, 2, 1, 1, 3, 3, 3, 3, 1, 1, 5, 4, 4, 4, 3, 3, 5, 4, 4, 4, 2, 1, 5, 5, 5, 3, 2, 2, 3, 3, 3, 4, 4, 4, 2, 2, 2, 4, 3, 3, 4, 3, 2, 2, 1, 1, 4, 4, 4, 2, 1, 1, 3, 3, 3, 4, 2, 2, 5, 4, 3, 3, 3, 3, 4, 3, 2, 4, 4, 4, 3, 1, 1, 5, 2, 2, 3, 2, 2, 4, 2, 2, 1, 1, 1, 3, 3, 3, 2, 1, 1, 3, 2, 2, 3, 2, 2, 4, 4, 4, 5, 3, 3, 4, 3, 3, 4, 4, 4, 5, 4, 3, 4, 2, 2, 3, 3, 3, 3, 3, 1, 5, 4, 4, 3, 2, 2, 4, 3, 3, 3, 1, 1, 4, 4, 4, 4, 3, 2, 5, 3, 3, 4, 4, 2, 3, 3, 3
 |3, 1, 1, 5, 4, 4, 3, 3, 2, 2, 2, 2, 3, 2, 2, 3, 1, 1, 2, 1, 1, 2, 1, 1, 2, 1, 1, 1, 1, 1, 2, 2, 2, 5, 4, 3, 3, 2, 2, 4, 2, 1, 3, 3, 3, 5, 5, 5, 2, 2, 2, 4, 2, 2, 3, 2, 2, 3, 2, 2, 3, 3, 3, 4, 4, 4, 3, 2, 2, 3, 2, 2, 3, 3, 3, 3, 2, 2, 4, 3, 2, 5, 4, 4, 2, 2, 2, 3, 1, 1, 3, 3, 1, 5, 4, 4, 3, 3, 3, 2, 2, 2, 1, 1, 1, 4, 4, 4, 4, 3, 3, 5, 3, 2, 4, 3, 3, 4, 2, 2, 3, 3, 3, 3, 2, 2, 4, 4, 4, 4, 3, 3, 5, 4, 3, 5, 3, 1, 5, 2, 1, 4, 2, 1, 2, 2, 2, 4, 4, 4
 |2, 1, 1, 5, 4, 2, 4, 3, 2, 4, 4, 3, 5, 4, 4, 1, 1, 1, 2, 1, 1, 2, 1, 1, 4, 2, 2, 4, 4, 4, 5, 3, 2, 4, 3, 3, 5, 5, 5, 4, 4, 4, 3, 2, 2, 5, 5, 5, 3, 2, 1, 5, 4, 3, 5, 4, 4, 2, 1, 1, 4, 3, 2, 2, 1, 1, 1, 1, 1, 3, 3, 3, 1, 1, 1, 5, 4, 3, 4, 3, 3, 5, 4, 4, 1, 1, 1, 4, 2, 2, 5, 2, 1, 2, 1, 1, 4, 3, 2, 4, 4, 3, 4, 3, 3, 2, 2, 2, 4, 3, 3, 4, 4, 4, 4, 2, 1, 4, 3, 3, 3, 3, 3, 5, 4, 3, 4, 4, 3, 4, 3, 2, 4, 4, 3, 4, 4, 4, 3, 3, 3, 3, 2, 2, 4, 4, 4, 3, 3, 2
 |23, 22, 18, 18, 12, 8, 15, 14, 12, 18, 9, 7, 21, 20, 14, 19, 12, 2, 14, 11, 10, 9, 8, 7, 12, 12, 8, 11, 10, 10, 5, 4, 4, 24, 21, 18, 15, 10, 7, 23, 19, 17, 20, 13, 7, 21, 20, 19, 29, 18, 8, 10, 10, 10, 25, 24, 23, 5, 5, 4, 21, 21, 21, 9, 9, 5, 25, 17, 11, 20, 11, 11, 27, 26, 22, 21, 16, 12, 11, 8, 7, 24, 21, 17, 12, 12, 11, 19, 19, 19, 13, 9, 7, 23, 17, 11, 17, 12, 8, 27, 21, 17, 16, 10, 7, 7, 5, 3, 17, 16, 13, 20, 19, 17, 26, 21, 7, 25, 24, 21, 11, 11, 9, 27, 12, 5, 15, 14, 14, 5, 4, 4, 15, 15, 15, 13, 10, 7, 22, 13, 9, 10, 8, 8, 17, 14, 6, 19, 15, 15
 |27, 20, 16, 20, 19, 14, 17, 13, 8, 9, 5, 5, 17, 10, 8, 29, 23, 21, 22, 21, 21, 22, 14, 13, 24, 15, 11, 23, 16, 8, 15, 13, 12, 22, 22, 22, 22, 15, 11, 29, 24, 22, 11, 7, 5, 26, 20, 17, 25, 23, 22, 26, 18, 3, 19, 13, 10, 18, 16, 16, 21, 14, 6, 27, 27, 24, 23, 18, 11, 15, 14, 10, 21, 20, 17, 21, 17, 15, 28, 25, 22, 27, 19, 15, 28, 28, 28, 22, 22, 21, 23, 23, 22, 12, 10, 8, 17, 13, 4, 11, 9, 9, 15, 14, 12, 19, 19, 17, 10, 7, 4, 20, 14, 8, 5, 4, 2, 12, 11, 7, 20, 14, 8, 28, 26, 24, 25, 25, 24, 18, 15, 8, 27, 18, 6, 8, 4, 2, 12, 11, 11, 9, 6, 5, 17, 14, 5, 29, 28, 28|];